verilog/counter/proof/counter.smt2
; SMT-LIBv2 description generated by Yosys 0.21 (git sha1 e6d2a900a, clang 14.0.0-1ubuntu1 -fPIC -Os)
; yosys-smt2-stdt
; yosys-smt2-module counter
(declare-datatype |counter_s| ((|counter_mk|
  (|counter_is| Bool)
  (|counter#0| Bool) ; \clk
  (|counter#1| (_ BitVec 32)) ; \counter
  (|counter#2| Bool) ; \en
  (|counter#3| Bool) ; \resetn
  (|counter#4| (_ BitVec 32)) ; \x
)))
; yosys-smt2-input clk 1
; yosys-smt2-clock clk posedge
; yosys-smt2-witness {"offset": 0, "path": ["\\clk"], "smtname": "clk", "type": "posedge", "width": 1}
; yosys-smt2-witness {"offset": 0, "path": ["\\clk"], "smtname": "clk", "type": "input", "width": 1}
(define-fun |counter_n clk| ((state |counter_s|)) Bool (|counter#0| state))
; yosys-smt2-witness {"offset": 0, "path": ["\\counter"], "smtname": 1, "type": "reg", "width": 32}
; yosys-smt2-register counter 32
(define-fun |counter_n counter| ((state |counter_s|)) (_ BitVec 32) (|counter#1| state))
; yosys-smt2-input en 1
; yosys-smt2-witness {"offset": 0, "path": ["\\en"], "smtname": "en", "type": "input", "width": 1}
(define-fun |counter_n en| ((state |counter_s|)) Bool (|counter#2| state))
; yosys-smt2-output out 32
(define-fun |counter_n out| ((state |counter_s|)) (_ BitVec 32) (|counter#1| state))
; yosys-smt2-input resetn 1
; yosys-smt2-witness {"offset": 0, "path": ["\\resetn"], "smtname": "resetn", "type": "input", "width": 1}
(define-fun |counter_n resetn| ((state |counter_s|)) Bool (|counter#3| state))
; yosys-smt2-input x 32
; yosys-smt2-witness {"offset": 0, "path": ["\\x"], "smtname": "x", "type": "input", "width": 32}
(define-fun |counter_n x| ((state |counter_s|)) (_ BitVec 32) (|counter#4| state))
(define-fun |counter#5| ((state |counter_s|)) (_ BitVec 32) (bvadd (|counter#1| state) (|counter#4| state))) ; $add$../impl/counter.v:17$3_Y
(define-fun |counter#6| ((state |counter_s|)) Bool (bvult (|counter#5| state) (|counter#1| state))) ; $lt$../impl/counter.v:17$4_Y
(define-fun |counter#7| ((state |counter_s|)) (_ BitVec 32) (ite (|counter#6| state) #b11111111111111111111111111111111 (|counter#5| state))) ; $ternary$../impl/counter.v:17$6_Y
(define-fun |counter#8| ((state |counter_s|)) (_ BitVec 32) (ite (|counter#2| state) (|counter#7| state) (|counter#1| state))) ; $procmux$7_Y
(define-fun |counter#9| ((state |counter_s|)) (_ BitVec 32) (ite (|counter#3| state) (|counter#8| state) (|counter#1| state))) ; $0\counter[31:0]
(define-fun |counter_a| ((state |counter_s|)) Bool true)
(define-fun |counter_u| ((state |counter_s|)) Bool true)
(define-fun |counter_i| ((state |counter_s|)) Bool true)
(define-fun |counter_h| ((state |counter_s|)) Bool true)
(define-fun |counter_t| ((state |counter_s|) (next_state |counter_s|)) Bool 
  (= (|counter#9| state) (|counter#1| next_state)) ; $procdff$12 \counter
) ; end of module counter
; yosys-smt2-topmod counter
; end of yosys output
